88
500
397	1
391	1
385	1
380	1
376	1
368	2
366	1
363	1
359	1
347	1
340	1
339	2
324	1
320	1
319	2
318	1
309	1
304	1
303	1
293	1
288	1
287	1
283	2
281	1
280	1
274	1
273	1
267	1
266	1
265	1
259	1
258	1
257	1
255	1
253	1
252	2
246	1
244	1
243	2
242	3
241	1
237	1
232	1
228	1
225	2
217	1
214	1
212	2
208	1
207	2
204	1
202	1
200	1
197	1
196	1
194	1
190	2
187	1
186	1
181	1
180	1
176	1
175	1
174	1
167	1
165	1
162	1
158	1
157	1
144	1
138	1
130	1
118	1
115	1
112	1
110	1
107	1
102	1
99	1
95	1
94	1
78	1
74	1
73	1
60	1
59	1
53	1
50	1
